WARNING: for repeatability, setting FPU to use double precision
============================[ Problem Statistics ]=============================
|                                                                             |
|  Number of variables:          1099                                         |
|  Number of clauses:            3308                                         |
|  Parse time:                   0.01 s                                       |
|  Simplification time:          0.00 s                                       |
|                                                                             |
===============================================================================
Solved by simplification
restarts              : 0
conflicts             : 0              (0 /sec)
decisions             : 0              (-nan % random) (0 /sec)
propagations          : 816            (153991 /sec)
conflict literals     : 0              (-nan % deleted)
Memory used           : 21.00 MB
CPU time              : 0.005299 s

UNSATISFIABLE
WARNING: for repeatability, setting FPU to use double precision
============================[ Problem Statistics ]=============================
|                                                                             |
|  Number of variables:          1099                                         |
|  Number of clauses:            3308                                         |
|  Parse time:                   0.00 s                                       |
|  Simplification time:          0.00 s                                       |
|                                                                             |
===============================================================================
Solved by simplification
restarts              : 0
conflicts             : 0              (0 /sec)
decisions             : 0              (-nan % random) (0 /sec)
propagations          : 816            (343434 /sec)
conflict literals     : 0              (-nan % deleted)
Memory used           : 21.00 MB
CPU time              : 0.002376 s

UNSATISFIABLE
